Minimize
  T2_1 + T4_1 + T5_1 + T6_1 + T7_1 + T8_1 + T9_1 + T10_1 + T2_3 + T4_3
   + T5_3 + T6_3 + T7_3 + T8_3 + T9_3 + T10_3
Subject To
 R0: - a2_1 - a4_1 - a5_1 - a6_1 - a7_1 - a8_1 - a9_1 - a10_1 = -485.7
 R1: a2_1 + a2_3 = 152.3
 R2: - a2_3 - a4_3 - a5_3 - a6_3 - a7_3 - a8_3 - a9_3 - a10_3 = -586.7
 R3: a4_1 + a4_3 = 152.3
 R4: a5_1 + a5_3 = 152.3
 R5: a6_1 + a6_3 = 6.3
 R6: a7_1 + a7_3 = 152.3
 R7: a8_1 + a8_3 = 152.3
 R8: a9_1 + a9_3 = 152.3
 R9: a10_1 + a10_3 = 152.3
 R10: 1e-07 a2_1 - T2_1 <= 0
 R11: 1e-07 a4_1 - T4_1 <= 0
 R12: 1e-07 a5_1 - T5_1 <= 0
 R13: 1e-07 a6_1 - T6_1 <= 0
 R14: 1e-07 a7_1 - T7_1 <= 0
 R15: 1e-07 a8_1 - T8_1 <= 0
 R16: 1e-07 a9_1 - T9_1 <= 0
 R17: 1e-07 a10_1 - T10_1 <= 0
 R18: 1e-07 a2_3 - T2_3 <= 0
 R19: 1e-07 a4_3 - T4_3 <= 0
 R20: 1e-07 a5_3 - T5_3 <= 0
 R21: 1e-07 a6_3 - T6_3 <= 0
 R22: 1e-07 a7_3 - T7_3 <= 0
 R23: 1e-07 a8_3 - T8_3 <= 0
 R24: 1e-07 a9_3 - T9_3 <= 0
 R25: 1e-07 a10_3 - T10_3 <= 0
Bounds
Binaries
 T2_1 T4_1 T5_1 T6_1 T7_1 T8_1 T9_1 T10_1 T2_3 T4_3 T5_3 T6_3 T7_3 T8_3
 T9_3 T10_3
End
